RSW05
Position Depot: Random
Horizon for Depot: Small
Position of customers: Random
Distribution of the demand: Small
Width of time windows: Wide
Distribution of the service: Small

VEHICLE 
NUMBER 	 CAPACITY 
 14 	 	 53 
 
CUSTOMER
CUST NO. 	 XCOORD.  	 YCOORD. 	 DEMAND 	 READY TIME 	 DUE DATE 	 SERVICE TIME 
 0 	 	 352 	 	 930 	 	 0 	 	 0 	 	 2234 	 	 0 
  1 	 	 699 	 	 911 	 	 6 	 	 1445 	 	 1702 	 	 68 
  2 	 	 233 	 	 712 	 	 7 	 	 1404 	 	 1883 	 	 86 
  3 	 	 477 	 	 827 	 	 7 	 	 633 	 	 938 	 	 97 
  4 	 	 984 	 	 180 	 	 9 	 	 758 	 	 1078 	 	 69 
  5 	 	 641 	 	 805 	 	 5 	 	 99 	 	 433 	 	 64 
  6 	 	 215 	 	 594 	 	 7 	 	 670 	 	 947 	 	 91 
  7 	 	 156 	 	 989 	 	 8 	 	 1754 	 	 1986 	 	 83 
  8 	 	 605 	 	 157 	 	 6 	 	 577 	 	 1020 	 	 79 
  9 	 	 145 	 	 349 	 	 5 	 	 372 	 	 678 	 	 82 
  10 	 	 878 	 	 727 	 	 6 	 	 719 	 	 986 	 	 88 
  11 	 	 808 	 	 790 	 	 8 	 	 25 	 	 524 	 	 70 
  12 	 	 466 	 	 236 	 	 6 	 	 374 	 	 773 	 	 67 
  13 	 	 92 	 	 23 	 	 7 	 	 1952 	 	 2234 	 	 70 
  14 	 	 315 	 	 485 	 	 8 	 	 934 	 	 1187 	 	 79 
  15 	 	 913 	 	 901 	 	 7 	 	 1240 	 	 1710 	 	 63 
  16 	 	 425 	 	 95 	 	 10 	 	 1033 	 	 1349 	 	 98 
  17 	 	 752 	 	 419 	 	 7 	 	 403 	 	 713 	 	 86 
  18 	 	 211 	 	 283 	 	 8 	 	 1335 	 	 1539 	 	 50 
  19 	 	 657 	 	 488 	 	 7 	 	 304 	 	 694 	 	 95 
  20 	 	 241 	 	 566 	 	 10 	 	 179 	 	 428 	 	 56 
  21 	 	 34 	 	 422 	 	 7 	 	 169 	 	 659 	 	 89 
  22 	 	 53 	 	 362 	 	 6 	 	 1153 	 	 1581 	 	 70 
  23 	 	 8 	 	 659 	 	 8 	 	 15 	 	 481 	 	 82 
  24 	 	 667 	 	 659 	 	 10 	 	 51 	 	 457 	 	 56 
  25 	 	 817 	 	 432 	 	 10 	 	 1981 	 	 2231 	 	 92 
  26 	 	 822 	 	 357 	 	 8 	 	 1635 	 	 1887 	 	 59 
  27 	 	 307 	 	 392 	 	 6 	 	 1336 	 	 1767 	 	 89 
  28 	 	 658 	 	 686 	 	 10 	 	 1317 	 	 1796 	 	 80 
  29 	 	 423 	 	 942 	 	 6 	 	 391 	 	 617 	 	 64 
  30 	 	 124 	 	 62 	 	 8 	 	 1361 	 	 1647 	 	 96 
  31 	 	 232 	 	 602 	 	 10 	 	 1876 	 	 2104 	 	 98 
  32 	 	 426 	 	 802 	 	 8 	 	 1274 	 	 1770 	 	 96 
  33 	 	 581 	 	 921 	 	 7 	 	 558 	 	 865 	 	 88 
  34 	 	 509 	 	 931 	 	 6 	 	 1711 	 	 2086 	 	 63 
  35 	 	 127 	 	 789 	 	 6 	 	 603 	 	 830 	 	 56 
  36 	 	 735 	 	 447 	 	 9 	 	 381 	 	 678 	 	 99 
  37 	 	 628 	 	 828 	 	 9 	 	 1498 	 	 1811 	 	 75 
  38 	 	 79 	 	 446 	 	 7 	 	 1584 	 	 2012 	 	 93 
  39 	 	 560 	 	 928 	 	 8 	 	 214 	 	 640 	 	 50 
  40 	 	 939 	 	 728 	 	 9 	 	 1665 	 	 1883 	 	 100 
  41 	 	 60 	 	 412 	 	 10 	 	 223 	 	 654 	 	 77 
  42 	 	 348 	 	 59 	 	 9 	 	 1595 	 	 2050 	 	 66 
  43 	 	 940 	 	 703 	 	 8 	 	 1852 	 	 2138 	 	 86 
  44 	 	 599 	 	 93 	 	 6 	 	 1192 	 	 1433 	 	 75 
  45 	 	 245 	 	 915 	 	 5 	 	 832 	 	 1206 	 	 89 
  46 	 	 308 	 	 676 	 	 6 	 	 1305 	 	 1731 	 	 96 
  47 	 	 693 	 	 980 	 	 6 	 	 1914 	 	 2220 	 	 57 
  48 	 	 113 	 	 279 	 	 8 	 	 1541 	 	 1896 	 	 65 
  49 	 	 128 	 	 826 	 	 7 	 	 936 	 	 1256 	 	 50 
  50 	 	 120 	 	 700 	 	 5 	 	 1137 	 	 1603 	 	 58 
  51 	 	 97 	 	 636 	 	 10 	 	 1684 	 	 2048 	 	 87 
  52 	 	 264 	 	 64 	 	 9 	 	 748 	 	 1100 	 	 92 
  53 	 	 418 	 	 878 	 	 7 	 	 532 	 	 827 	 	 91 
  54 	 	 297 	 	 255 	 	 6 	 	 430 	 	 744 	 	 79 
  55 	 	 928 	 	 684 	 	 8 	 	 1413 	 	 1618 	 	 86 
  56 	 	 348 	 	 404 	 	 5 	 	 1353 	 	 1675 	 	 70 
  57 	 	 782 	 	 487 	 	 5 	 	 1837 	 	 2222 	 	 83 
  58 	 	 78 	 	 66 	 	 6 	 	 572 	 	 997 	 	 55 
  59 	 	 380 	 	 713 	 	 7 	 	 848 	 	 1127 	 	 66 
  60 	 	 528 	 	 749 	 	 10 	 	 1285 	 	 1688 	 	 81 
  61 	 	 669 	 	 886 	 	 6 	 	 1856 	 	 2225 	 	 84 
  62 	 	 832 	 	 744 	 	 8 	 	 642 	 	 983 	 	 87 
  63 	 	 409 	 	 451 	 	 9 	 	 327 	 	 530 	 	 63 
  64 	 	 837 	 	 368 	 	 9 	 	 600 	 	 816 	 	 61 
  65 	 	 617 	 	 500 	 	 9 	 	 1825 	 	 2224 	 	 91 
  66 	 	 234 	 	 433 	 	 8 	 	 1268 	 	 1694 	 	 65 
  67 	 	 22 	 	 529 	 	 6 	 	 485 	 	 923 	 	 61 
  68 	 	 585 	 	 234 	 	 5 	 	 401 	 	 807 	 	 91 
  69 	 	 529 	 	 41 	 	 10 	 	 688 	 	 1051 	 	 58 
  70 	 	 925 	 	 597 	 	 10 	 	 681 	 	 953 	 	 86 
  71 	 	 399 	 	 76 	 	 6 	 	 1642 	 	 1975 	 	 96 
  72 	 	 495 	 	 382 	 	 9 	 	 908 	 	 1128 	 	 61 
  73 	 	 813 	 	 360 	 	 7 	 	 345 	 	 806 	 	 97 
  74 	 	 940 	 	 329 	 	 5 	 	 1781 	 	 2234 	 	 59 
  75 	 	 977 	 	 249 	 	 6 	 	 691 	 	 1071 	 	 64 
  76 	 	 614 	 	 831 	 	 9 	 	 1218 	 	 1481 	 	 95 
  77 	 	 331 	 	 739 	 	 9 	 	 311 	 	 777 	 	 67 
  78 	 	 146 	 	 448 	 	 7 	 	 905 	 	 1310 	 	 52 
  79 	 	 470 	 	 760 	 	 9 	 	 862 	 	 1284 	 	 89 
  80 	 	 328 	 	 35 	 	 10 	 	 1301 	 	 1654 	 	 100 
  81 	 	 231 	 	 754 	 	 5 	 	 -38 	 	 426 	 	 92 
  82 	 	 200 	 	 661 	 	 7 	 	 725 	 	 978 	 	 73 
  83 	 	 498 	 	 591 	 	 5 	 	 103 	 	 406 	 	 62 
  84 	 	 833 	 	 358 	 	 8 	 	 514 	 	 822 	 	 65 
  85 	 	 869 	 	 625 	 	 6 	 	 225 	 	 660 	 	 65 
  86 	 	 238 	 	 878 	 	 9 	 	 -177 	 	 200 	 	 51 
  87 	 	 383 	 	 41 	 	 6 	 	 537 	 	 978 	 	 100 
  88 	 	 194 	 	 549 	 	 7 	 	 124 	 	 453 	 	 92 
  89 	 	 476 	 	 21 	 	 9 	 	 792 	 	 1077 	 	 82 
  90 	 	 142 	 	 423 	 	 7 	 	 537 	 	 986 	 	 78 
  91 	 	 338 	 	 634 	 	 5 	 	 194 	 	 688 	 	 89 
  92 	 	 392 	 	 53 	 	 7 	 	 655 	 	 965 	 	 78 
  93 	 	 853 	 	 733 	 	 8 	 	 1622 	 	 1918 	 	 93 
  94 	 	 61 	 	 869 	 	 9 	 	 1481 	 	 1754 	 	 64 
  95 	 	 365 	 	 860 	 	 10 	 	 40 	 	 426 	 	 71 
  96 	 	 886 	 	 313 	 	 6 	 	 525 	 	 897 	 	 78 
  97 	 	 196 	 	 305 	 	 5 	 	 1866 	 	 2093 	 	 77 
  98 	 	 56 	 	 378 	 	 9 	 	 951 	 	 1367 	 	 68 
  99 	 	 1000 	 	 906 	 	 8 	 	 1893 	 	 2234 	 	 52 
  100 	 	 398 	 	 640 	 	 6 	 	 16 	 	 322 	 	 56 
 